c Random generated cnf formula, satisfiable: false
p cnf 10 50
-5 9 -10 0
2 7 -10 0
-6 9 3 0
2 6 -10 0
-4 -5 8 0
-4 -9 -2 0
-3 4 7 0
5 -8 2 0
7 5 8 0
-5 -6 4 0
-8 -6 10 0
-9 -7 -10 0
-5 -1 4 0
1 5 -10 0
4 7 5 0
7 1 3 0
-4 -8 -3 0
10 -8 7 0
-10 -8 -3 0
-6 -5 -3 0
3 -1 9 0
-8 -9 2 0
10 7 -6 0
-7 3 -2 0
2 -1 4 0
9 5 8 0
4 -2 9 0
-10 -3 -6 0
8 10 -4 0
5 3 -10 0
1 -5 6 0
-2 -10 8 0
5 -6 -9 0
9 -10 -4 0
5 -4 7 0
6 8 -4 0
4 -7 -6 0
-5 1 -3 0
1 6 -9 0
8 6 2 0
-5 2 -1 0
-5 2 8 0
8 -3 -10 0
5 8 -10 0
8 10 -9 0
7 -1 -9 0
-8 1 -7 0
-4 7 -2 0
-6 2 3 0
-7 4 -3 0
